c CNF file corresponding to a (partial) station packing problem.
p cnf 5049 171
1 2 3 4 5 6 7 8 9 10 11 12 13 14 0
-1 -2 0
-1 -3 0
-1 -4 0
-1 -5 0
-1 -6 0
-1 -7 0
-1 -8 0
-1 -9 0
-1 -10 0
-1 -11 0
-1 -12 0
-1 -13 0
-1 -14 0
-2 -3 0
-2 -4 0
-2 -5 0
-2 -6 0
-2 -7 0
-2 -8 0
-2 -9 0
-2 -10 0
-2 -11 0
-2 -12 0
-2 -13 0
-2 -14 0
-3 -4 0
-3 -5 0
-3 -6 0
-3 -7 0
-3 -8 0
-3 -9 0
-3 -10 0
-3 -11 0
-3 -12 0
-3 -13 0
-3 -14 0
-4 -5 0
-4 -6 0
-4 -7 0
-4 -8 0
-4 -9 0
-4 -10 0
-4 -11 0
-4 -12 0
-4 -13 0
-4 -14 0
-5 -6 0
-5 -7 0
-5 -8 0
-5 -9 0
-5 -10 0
-5 -11 0
-5 -12 0
-5 -13 0
-5 -14 0
-6 -7 0
-6 -8 0
-6 -9 0
-6 -10 0
-6 -11 0
-6 -12 0
-6 -13 0
-6 -14 0
-7 -8 0
-7 -9 0
-7 -10 0
-7 -11 0
-7 -12 0
-7 -13 0
-7 -14 0
-8 -9 0
-8 -10 0
-8 -11 0
-8 -12 0
-8 -13 0
-8 -14 0
-9 -10 0
-9 -11 0
-9 -12 0
-9 -13 0
-9 -14 0
-10 -11 0
-10 -12 0
-10 -13 0
-10 -14 0
-11 -12 0
-11 -13 0
-11 -14 0
-12 -13 0
-12 -14 0
-13 -14 0
5037 5038 5039 5040 5041 5042 5043 5044 5045 5046 5047 5048 5049 0
-5037 -5038 0
-5037 -5039 0
-5037 -5040 0
-5037 -5041 0
-5037 -5042 0
-5037 -5043 0
-5037 -5044 0
-5037 -5045 0
-5037 -5046 0
-5037 -5047 0
-5037 -5048 0
-5037 -5049 0
-5038 -5039 0
-5038 -5040 0
-5038 -5041 0
-5038 -5042 0
-5038 -5043 0
-5038 -5044 0
-5038 -5045 0
-5038 -5046 0
-5038 -5047 0
-5038 -5048 0
-5038 -5049 0
-5039 -5040 0
-5039 -5041 0
-5039 -5042 0
-5039 -5043 0
-5039 -5044 0
-5039 -5045 0
-5039 -5046 0
-5039 -5047 0
-5039 -5048 0
-5039 -5049 0
-5040 -5041 0
-5040 -5042 0
-5040 -5043 0
-5040 -5044 0
-5040 -5045 0
-5040 -5046 0
-5040 -5047 0
-5040 -5048 0
-5040 -5049 0
-5041 -5042 0
-5041 -5043 0
-5041 -5044 0
-5041 -5045 0
-5041 -5046 0
-5041 -5047 0
-5041 -5048 0
-5041 -5049 0
-5042 -5043 0
-5042 -5044 0
-5042 -5045 0
-5042 -5046 0
-5042 -5047 0
-5042 -5048 0
-5042 -5049 0
-5043 -5044 0
-5043 -5045 0
-5043 -5046 0
-5043 -5047 0
-5043 -5048 0
-5043 -5049 0
-5044 -5045 0
-5044 -5046 0
-5044 -5047 0
-5044 -5048 0
-5044 -5049 0
-5045 -5046 0
-5045 -5047 0
-5045 -5048 0
-5045 -5049 0
-5046 -5047 0
-5046 -5048 0
-5046 -5049 0
-5047 -5048 0
-5047 -5049 0
-5048 -5049 0
